898074
26 33 15458
33 12 3967
12 34 39715
34 25 30137
25 39 4093
39 37 6534
37 30 941
30 31 10287
31 28 12751
28 13 6411
13 23 20028
23 38 7449
38 29 745
29 7 22890
7 36 11794
36 6 22446
6 9 47658
9 8 54349
8 15 26227
15 17 45489
17 14 42391
14 3 30026
3 16 71701
16 35 56496
35 11 5412
11 10 5506
10 1 6947
1 21 6578
21 2 11546
2 27 15288
27 18 12606
18 40 18404
40 19 13572
19 4 26533
4 22 23621
22 24 45980
24 5 63665
5 32 3290
32 20 24202
20 26 24941
